NAME : ManP-100-2.14068775.tour
COMMENT : Length = 14068775
COMMENT : Found by LKH [Keld Helsgaun] Thu Nov 29 13:06:56 2018
TYPE : TOUR
DIMENSION : 105
TOUR_SECTION
1
24
29
91
5
38
44
30
65
36
69
6
98
54
16
63
83
60
85
76
77
31
47
25
88
50
34
19
82
80
13
105
104
51
28
4
42
56
93
21
45
78
100
70
20
9
90
101
58
8
99
96
7
87
57
94
64
46
40
37
33
89
39
68
43
79
52
15
74
75
102
97
86
48
72
73
81
2
32
22
92
67
55
17
59
23
95
66
61
12
71
35
10
3
62
53
11
26
84
49
41
27
18
14
103
-1
EOF
